p cnf 45 335
4 7 11 16 22 29 37 46 56 0
8 12 17 23 30 38 47 57 68 0
13 18 24 31 39 48 58 69 81 0
19 25 32 40 49 59 70 82 95 0
26 33 41 50 60 71 83 96 110 0
-4 -8 0
-7 -12 0
-11 -17 0
-16 -23 0
-22 -30 0
-29 -38 0
-37 -47 0
-46 -57 0
-56 -68 0
-4 -13 0
-7 -18 0
-11 -24 0
-16 -31 0
-22 -39 0
-29 -48 0
-37 -58 0
-46 -69 0
-56 -81 0
-4 -19 0
-7 -25 0
-11 -32 0
-16 -40 0
-22 -49 0
-29 -59 0
-37 -70 0
-46 -82 0
-56 -95 0
-4 -26 0
-7 -33 0
-11 -41 0
-16 -50 0
-22 -60 0
-29 -71 0
-37 -83 0
-46 -96 0
-56 -110 0
-8 -13 0
-12 -18 0
-17 -24 0
-23 -31 0
-30 -39 0
-38 -48 0
-47 -58 0
-57 -69 0
-68 -81 0
-8 -19 0
-12 -25 0
-17 -32 0
-23 -40 0
-30 -49 0
-38 -59 0
-47 -70 0
-57 -82 0
-68 -95 0
-8 -26 0
-12 -33 0
-17 -41 0
-23 -50 0
-30 -60 0
-38 -71 0
-47 -83 0
-57 -96 0
-68 -110 0
-13 -19 0
-18 -25 0
-24 -32 0
-31 -40 0
-39 -49 0
-48 -59 0
-58 -70 0
-69 -82 0
-81 -95 0
-13 -26 0
-18 -33 0
-24 -41 0
-31 -50 0
-39 -60 0
-48 -71 0
-58 -83 0
-69 -96 0
-81 -110 0
-19 -26 0
-25 -33 0
-32 -41 0
-40 -50 0
-49 -60 0
-59 -71 0
-70 -83 0
-82 -96 0
-95 -110 0
-4 -23 0
-4 -30 0
-4 -47 0
-4 -68 0
-7 -23 0
-11 -23 0
-16 -38 0
-16 -47 0
-22 -47 0
-29 -57 0
-29 -68 0
-37 -68 0
-4 -31 0
-4 -39 0
-4 -58 0
-4 -81 0
-7 -31 0
-11 -31 0
-16 -48 0
-16 -58 0
-22 -58 0
-29 -69 0
-29 -81 0
-37 -81 0
-4 -40 0
-4 -49 0
-4 -70 0
-4 -95 0
-7 -40 0
-11 -40 0
-16 -59 0
-16 -70 0
-22 -70 0
-29 -82 0
-29 -95 0
-37 -95 0
-4 -50 0
-4 -60 0
-4 -83 0
-4 -110 0
-7 -50 0
-11 -50 0
-16 -71 0
-16 -83 0
-22 -83 0
-29 -96 0
-29 -110 0
-37 -110 0
-8 -16 0
-8 -22 0
-8 -37 0
-8 -56 0
-12 -16 0
-17 -16 0
-23 -29 0
-23 -37 0
-30 -37 0
-38 -46 0
-38 -56 0
-47 -56 0
-8 -31 0
-8 -39 0
-8 -58 0
-8 -81 0
-12 -31 0
-17 -31 0
-23 -48 0
-23 -58 0
-30 -58 0
-38 -69 0
-38 -81 0
-47 -81 0
-8 -40 0
-8 -49 0
-8 -70 0
-8 -95 0
-12 -40 0
-17 -40 0
-23 -59 0
-23 -70 0
-30 -70 0
-38 -82 0
-38 -95 0
-47 -95 0
-8 -50 0
-8 -60 0
-8 -83 0
-8 -110 0
-12 -50 0
-17 -50 0
-23 -71 0
-23 -83 0
-30 -83 0
-38 -96 0
-38 -110 0
-47 -110 0
-13 -16 0
-13 -22 0
-13 -37 0
-13 -56 0
-18 -16 0
-24 -16 0
-31 -29 0
-31 -37 0
-39 -37 0
-48 -46 0
-48 -56 0
-58 -56 0
-13 -23 0
-13 -30 0
-13 -47 0
-13 -68 0
-18 -23 0
-24 -23 0
-31 -38 0
-31 -47 0
-39 -47 0
-48 -57 0
-48 -68 0
-58 -68 0
-13 -40 0
-13 -49 0
-13 -70 0
-13 -95 0
-18 -40 0
-24 -40 0
-31 -59 0
-31 -70 0
-39 -70 0
-48 -82 0
-48 -95 0
-58 -95 0
-13 -50 0
-13 -60 0
-13 -83 0
-13 -110 0
-18 -50 0
-24 -50 0
-31 -71 0
-31 -83 0
-39 -83 0
-48 -96 0
-48 -110 0
-58 -110 0
-19 -16 0
-19 -22 0
-19 -37 0
-19 -56 0
-25 -16 0
-32 -16 0
-40 -29 0
-40 -37 0
-49 -37 0
-59 -46 0
-59 -56 0
-70 -56 0
-19 -23 0
-19 -30 0
-19 -47 0
-19 -68 0
-25 -23 0
-32 -23 0
-40 -38 0
-40 -47 0
-49 -47 0
-59 -57 0
-59 -68 0
-70 -68 0
-19 -31 0
-19 -39 0
-19 -58 0
-19 -81 0
-25 -31 0
-32 -31 0
-40 -48 0
-40 -58 0
-49 -58 0
-59 -69 0
-59 -81 0
-70 -81 0
-19 -50 0
-19 -60 0
-19 -83 0
-19 -110 0
-25 -50 0
-32 -50 0
-40 -71 0
-40 -83 0
-49 -83 0
-59 -96 0
-59 -110 0
-70 -110 0
-26 -16 0
-26 -22 0
-26 -37 0
-26 -56 0
-33 -16 0
-41 -16 0
-50 -29 0
-50 -37 0
-60 -37 0
-71 -46 0
-71 -56 0
-83 -56 0
-26 -23 0
-26 -30 0
-26 -47 0
-26 -68 0
-33 -23 0
-41 -23 0
-50 -38 0
-50 -47 0
-60 -47 0
-71 -57 0
-71 -68 0
-83 -68 0
-26 -31 0
-26 -39 0
-26 -58 0
-26 -81 0
-33 -31 0
-41 -31 0
-50 -48 0
-50 -58 0
-60 -58 0
-71 -69 0
-71 -81 0
-83 -81 0
-26 -40 0
-26 -49 0
-26 -70 0
-26 -95 0
-33 -40 0
-41 -40 0
-50 -59 0
-50 -70 0
-60 -70 0
-71 -82 0
-71 -95 0
-83 -95 0
